50	50290

275 275
386 386
129 129
835 835
900 900
664 664
230 230
850 850
456 456
893 893
35 35
227 227
641 641
162 162
431 431
321 321
682 682
113 113
390 390
565 565
904 904
696 696
671 671
819 819
974 974
231 231
586 586
227 227
270 270
506 506
612 612
842 842
95 95
254 254
496 496
62 62
915 915
221 221
371 371
171 171
922 922
839 839
373 373
216 216
855 855
662 662
485 485
602 602
745 745
338 338
